DIMENSION :22
NODE_COORD_SECTION
1 -13.901361537218065 45.39386178063859
2 -65.42257440155237 -67.49849514707032
3 39.185818896859615 81.7364734098559
4 78.90963276264546 -62.982973472778035
5 23.317284642692158 -7.0744380197418195
6 -58.182493885663035 41.10967177323025
7 96.33905522078422 -69.91515572685503
8 93.39169301927151 -30.15093495267962
9 3.3562747147505263 95.78580120432724
10 27.231019065654834 -2.8254831425628737
11 -13.842200597681995 48.03519401145297
12 74.7175124442843 -23.580422136524334
13 -81.30542478636809 37.66658526424541
14 -59.131622482346934 73.22557950582762
15 -90.8791440869714 -64.29071582999407
16 -69.89415549090845 -70.21913010471728
17 -15.116111465004778 84.84730620634528
18 71.8876579494029 -42.51338500958002
19 34.57414837838084 17.86995577400745
20 -21.007727418312186 -45.435954027021744
21 -81.27504397266819 26.05469209923723
22 -24.64541169798271 75.78208196208897
EOF
